certificates/rado_a13_c271_N26.drat
21 -26 0
22 -26 0
-26 0
-21 0
19 0
23 0
24 0
-22 0
7 0
11 0
6 0
20 0
-18 0
-17 0
-9 0
-12 0
-13 0
-8 0
3 0
16 0
2 0
15 0
10 0
14 0
0
